(set-logic HORN)
(set-info :source |
    Benchmark: C_VC
    Output by Princess (http://www.philipp.ruemmer.org/princess.shtml)
|)
(set-info :status sat)
(declare-fun inv_main27 (Int Int Int Int Int Int Int Int Int Int Int) Bool)
(declare-fun inv_main4 (Int Int Int Int Int Int Int Int Int Int Int) Bool)
(declare-fun inv_main7 (Int Int Int Int Int Int Int Int Int Int Int) Bool)
(assert (inv_main4 20000001 0 0 0 0 0 0 0 0 0 0))
(assert (forall ((var0 Int) (var1 Int) (var2 Int) (var3 Int) (var4 Int) (var5 Int) (var6 Int) (var7 Int) (var8 Int) (var9 Int) (var10 Int) (var11 Int) (var12 Int)) (or (not (and (inv_main7 var10 var9 var8 var7 var6 var5 var4 var3 var2 var1 var0) (and (and (and (and (and (and (<= 0 (+ (+ 8 (* (- 1) var11)) (- 1))) (<= 0 (+ (+ 8 (* 1 var11)) (- 1)))) (or (not (<= 0 (+ var11 (- 1)))) (<= 0 (+ var5 (- 1))))) (or (not (<= 0 (+ (* (- 1) var11) (- 1)))) (<= 0 (+ (* (- 1) var5) (- 1))))) (= var5 (+ (* 8 var12) var11))) (= var11 0)) (<= 0 (+ (+ var9 (* (- 1) var5)) (- 1)))))) (inv_main27 var10 var9 var8 var7 var6 (+ var5 1) var4 var3 var2 var1 (+ var0 1)))))
(assert (forall ((var0 Int) (var1 Int) (var2 Int) (var3 Int) (var4 Int) (var5 Int) (var6 Int) (var7 Int) (var8 Int) (var9 Int) (var10 Int) (var11 Int) (var12 Int) (var13 Int) (var14 Int)) (or (not (and (inv_main7 var10 var9 var8 var7 var6 var5 var4 var3 var2 var1 var0) (and (and (and (and (and (and (<= 0 (+ (+ 7 (* (- 1) var11)) (- 1))) (<= 0 (+ (+ 7 (* 1 var11)) (- 1)))) (or (not (<= 0 (+ var11 (- 1)))) (<= 0 (+ var5 (- 1))))) (or (not (<= 0 (+ (* (- 1) var11) (- 1)))) (<= 0 (+ (* (- 1) var5) (- 1))))) (= var5 (+ (* 7 var12) var11))) (= var11 0)) (and (not (or (not (and (and (and (and (<= 0 (+ (+ 8 (* (- 1) var13)) (- 1))) (<= 0 (+ (+ 8 (* 1 var13)) (- 1)))) (or (not (<= 0 (+ var13 (- 1)))) (<= 0 (+ var5 (- 1))))) (or (not (<= 0 (+ (* (- 1) var13) (- 1)))) (<= 0 (+ (* (- 1) var5) (- 1))))) (= var5 (+ (* 8 var14) var13)))) (= var13 0))) (<= 0 (+ (+ var9 (* (- 1) var5)) (- 1))))))) (inv_main27 var10 var9 var8 var7 var6 (+ var5 1) (+ var4 1) var3 var2 var1 var0))))
(assert (forall ((var0 Int) (var1 Int) (var2 Int) (var3 Int) (var4 Int) (var5 Int) (var6 Int) (var7 Int) (var8 Int) (var9 Int) (var10 Int) (var11 Int) (var12 Int) (var13 Int) (var14 Int) (var15 Int) (var16 Int)) (or (not (and (inv_main7 var10 var9 var8 var7 var6 var5 var4 var3 var2 var1 var0) (and (and (and (and (and (and (<= 0 (+ (+ 6 (* (- 1) var11)) (- 1))) (<= 0 (+ (+ 6 (* 1 var11)) (- 1)))) (or (not (<= 0 (+ var11 (- 1)))) (<= 0 (+ var5 (- 1))))) (or (not (<= 0 (+ (* (- 1) var11) (- 1)))) (<= 0 (+ (* (- 1) var5) (- 1))))) (= var5 (+ (* 6 var12) var11))) (= var11 0)) (and (not (or (not (and (and (and (and (<= 0 (+ (+ 7 (* (- 1) var13)) (- 1))) (<= 0 (+ (+ 7 (* 1 var13)) (- 1)))) (or (not (<= 0 (+ var13 (- 1)))) (<= 0 (+ var5 (- 1))))) (or (not (<= 0 (+ (* (- 1) var13) (- 1)))) (<= 0 (+ (* (- 1) var5) (- 1))))) (= var5 (+ (* 7 var14) var13)))) (= var13 0))) (and (not (or (not (and (and (and (and (<= 0 (+ (+ 8 (* (- 1) var15)) (- 1))) (<= 0 (+ (+ 8 (* 1 var15)) (- 1)))) (or (not (<= 0 (+ var15 (- 1)))) (<= 0 (+ var5 (- 1))))) (or (not (<= 0 (+ (* (- 1) var15) (- 1)))) (<= 0 (+ (* (- 1) var5) (- 1))))) (= var5 (+ (* 8 var16) var15)))) (= var15 0))) (<= 0 (+ (+ var9 (* (- 1) var5)) (- 1)))))))) (inv_main27 var10 var9 var8 var7 var6 (+ var5 1) var4 (+ var3 1) var2 var1 var0))))
(assert (forall ((var0 Int) (var1 Int) (var2 Int) (var3 Int) (var4 Int) (var5 Int) (var6 Int) (var7 Int) (var8 Int) (var9 Int) (var10 Int) (var11 Int) (var12 Int) (var13 Int) (var14 Int) (var15 Int) (var16 Int) (var17 Int) (var18 Int)) (or (not (and (inv_main7 var10 var9 var8 var7 var6 var5 var4 var3 var2 var1 var0) (and (and (and (and (and (and (<= 0 (+ (+ 5 (* (- 1) var11)) (- 1))) (<= 0 (+ (+ 5 (* 1 var11)) (- 1)))) (or (not (<= 0 (+ var11 (- 1)))) (<= 0 (+ var5 (- 1))))) (or (not (<= 0 (+ (* (- 1) var11) (- 1)))) (<= 0 (+ (* (- 1) var5) (- 1))))) (= var5 (+ (* 5 var12) var11))) (= var11 0)) (and (not (or (not (and (and (and (and (<= 0 (+ (+ 6 (* (- 1) var13)) (- 1))) (<= 0 (+ (+ 6 (* 1 var13)) (- 1)))) (or (not (<= 0 (+ var13 (- 1)))) (<= 0 (+ var5 (- 1))))) (or (not (<= 0 (+ (* (- 1) var13) (- 1)))) (<= 0 (+ (* (- 1) var5) (- 1))))) (= var5 (+ (* 6 var14) var13)))) (= var13 0))) (and (not (or (not (and (and (and (and (<= 0 (+ (+ 7 (* (- 1) var15)) (- 1))) (<= 0 (+ (+ 7 (* 1 var15)) (- 1)))) (or (not (<= 0 (+ var15 (- 1)))) (<= 0 (+ var5 (- 1))))) (or (not (<= 0 (+ (* (- 1) var15) (- 1)))) (<= 0 (+ (* (- 1) var5) (- 1))))) (= var5 (+ (* 7 var16) var15)))) (= var15 0))) (and (not (or (not (and (and (and (and (<= 0 (+ (+ 8 (* (- 1) var17)) (- 1))) (<= 0 (+ (+ 8 (* 1 var17)) (- 1)))) (or (not (<= 0 (+ var17 (- 1)))) (<= 0 (+ var5 (- 1))))) (or (not (<= 0 (+ (* (- 1) var17) (- 1)))) (<= 0 (+ (* (- 1) var5) (- 1))))) (= var5 (+ (* 8 var18) var17)))) (= var17 0))) (<= 0 (+ (+ var9 (* (- 1) var5)) (- 1))))))))) (inv_main27 var10 var9 var8 var7 var6 (+ var5 1) var4 var3 (+ var2 1) var1 var0))))
(assert (forall ((var0 Int) (var1 Int) (var2 Int) (var3 Int) (var4 Int) (var5 Int) (var6 Int) (var7 Int) (var8 Int) (var9 Int) (var10 Int) (var11 Int) (var12 Int) (var13 Int) (var14 Int) (var15 Int) (var16 Int) (var17 Int) (var18 Int) (var19 Int) (var20 Int)) (or (not (and (inv_main7 var10 var9 var8 var7 var6 var5 var4 var3 var2 var1 var0) (and (and (and (and (and (and (<= 0 (+ (+ 4 (* (- 1) var11)) (- 1))) (<= 0 (+ (+ 4 (* 1 var11)) (- 1)))) (or (not (<= 0 (+ var11 (- 1)))) (<= 0 (+ var5 (- 1))))) (or (not (<= 0 (+ (* (- 1) var11) (- 1)))) (<= 0 (+ (* (- 1) var5) (- 1))))) (= var5 (+ (* 4 var12) var11))) (= var11 0)) (and (not (or (not (and (and (and (and (<= 0 (+ (+ 5 (* (- 1) var13)) (- 1))) (<= 0 (+ (+ 5 (* 1 var13)) (- 1)))) (or (not (<= 0 (+ var13 (- 1)))) (<= 0 (+ var5 (- 1))))) (or (not (<= 0 (+ (* (- 1) var13) (- 1)))) (<= 0 (+ (* (- 1) var5) (- 1))))) (= var5 (+ (* 5 var14) var13)))) (= var13 0))) (and (not (or (not (and (and (and (and (<= 0 (+ (+ 6 (* (- 1) var15)) (- 1))) (<= 0 (+ (+ 6 (* 1 var15)) (- 1)))) (or (not (<= 0 (+ var15 (- 1)))) (<= 0 (+ var5 (- 1))))) (or (not (<= 0 (+ (* (- 1) var15) (- 1)))) (<= 0 (+ (* (- 1) var5) (- 1))))) (= var5 (+ (* 6 var16) var15)))) (= var15 0))) (and (not (or (not (and (and (and (and (<= 0 (+ (+ 7 (* (- 1) var17)) (- 1))) (<= 0 (+ (+ 7 (* 1 var17)) (- 1)))) (or (not (<= 0 (+ var17 (- 1)))) (<= 0 (+ var5 (- 1))))) (or (not (<= 0 (+ (* (- 1) var17) (- 1)))) (<= 0 (+ (* (- 1) var5) (- 1))))) (= var5 (+ (* 7 var18) var17)))) (= var17 0))) (and (not (or (not (and (and (and (and (<= 0 (+ (+ 8 (* (- 1) var19)) (- 1))) (<= 0 (+ (+ 8 (* 1 var19)) (- 1)))) (or (not (<= 0 (+ var19 (- 1)))) (<= 0 (+ var5 (- 1))))) (or (not (<= 0 (+ (* (- 1) var19) (- 1)))) (<= 0 (+ (* (- 1) var5) (- 1))))) (= var5 (+ (* 8 var20) var19)))) (= var19 0))) (<= 0 (+ (+ var9 (* (- 1) var5)) (- 1)))))))))) (inv_main27 var10 var9 var8 var7 var6 (+ var5 1) var4 var3 var2 (+ var1 1) var0))))
(assert (forall ((var0 Int) (var1 Int) (var2 Int) (var3 Int) (var4 Int) (var5 Int) (var6 Int) (var7 Int) (var8 Int) (var9 Int) (var10 Int) (var11 Int) (var12 Int) (var13 Int) (var14 Int) (var15 Int) (var16 Int) (var17 Int) (var18 Int) (var19 Int) (var20 Int) (var21 Int) (var22 Int)) (or (not (and (inv_main7 var10 var9 var8 var7 var6 var5 var4 var3 var2 var1 var0) (and (and (and (and (and (and (<= 0 (+ (+ 3 (* (- 1) var11)) (- 1))) (<= 0 (+ (+ 3 (* 1 var11)) (- 1)))) (or (not (<= 0 (+ var11 (- 1)))) (<= 0 (+ var5 (- 1))))) (or (not (<= 0 (+ (* (- 1) var11) (- 1)))) (<= 0 (+ (* (- 1) var5) (- 1))))) (= var5 (+ (* 3 var12) var11))) (= var11 0)) (and (not (or (not (and (and (and (and (<= 0 (+ (+ 4 (* (- 1) var13)) (- 1))) (<= 0 (+ (+ 4 (* 1 var13)) (- 1)))) (or (not (<= 0 (+ var13 (- 1)))) (<= 0 (+ var5 (- 1))))) (or (not (<= 0 (+ (* (- 1) var13) (- 1)))) (<= 0 (+ (* (- 1) var5) (- 1))))) (= var5 (+ (* 4 var14) var13)))) (= var13 0))) (and (not (or (not (and (and (and (and (<= 0 (+ (+ 5 (* (- 1) var15)) (- 1))) (<= 0 (+ (+ 5 (* 1 var15)) (- 1)))) (or (not (<= 0 (+ var15 (- 1)))) (<= 0 (+ var5 (- 1))))) (or (not (<= 0 (+ (* (- 1) var15) (- 1)))) (<= 0 (+ (* (- 1) var5) (- 1))))) (= var5 (+ (* 5 var16) var15)))) (= var15 0))) (and (not (or (not (and (and (and (and (<= 0 (+ (+ 6 (* (- 1) var17)) (- 1))) (<= 0 (+ (+ 6 (* 1 var17)) (- 1)))) (or (not (<= 0 (+ var17 (- 1)))) (<= 0 (+ var5 (- 1))))) (or (not (<= 0 (+ (* (- 1) var17) (- 1)))) (<= 0 (+ (* (- 1) var5) (- 1))))) (= var5 (+ (* 6 var18) var17)))) (= var17 0))) (and (not (or (not (and (and (and (and (<= 0 (+ (+ 7 (* (- 1) var19)) (- 1))) (<= 0 (+ (+ 7 (* 1 var19)) (- 1)))) (or (not (<= 0 (+ var19 (- 1)))) (<= 0 (+ var5 (- 1))))) (or (not (<= 0 (+ (* (- 1) var19) (- 1)))) (<= 0 (+ (* (- 1) var5) (- 1))))) (= var5 (+ (* 7 var20) var19)))) (= var19 0))) (and (not (or (not (and (and (and (and (<= 0 (+ (+ 8 (* (- 1) var21)) (- 1))) (<= 0 (+ (+ 8 (* 1 var21)) (- 1)))) (or (not (<= 0 (+ var21 (- 1)))) (<= 0 (+ var5 (- 1))))) (or (not (<= 0 (+ (* (- 1) var21) (- 1)))) (<= 0 (+ (* (- 1) var5) (- 1))))) (= var5 (+ (* 8 var22) var21)))) (= var21 0))) (<= 0 (+ (+ var9 (* (- 1) var5)) (- 1))))))))))) (inv_main27 var10 var9 (+ var8 1) var7 var6 (+ var5 1) var4 var3 var2 var1 var0))))
(assert (forall ((var0 Int) (var1 Int) (var2 Int) (var3 Int) (var4 Int) (var5 Int) (var6 Int) (var7 Int) (var8 Int) (var9 Int) (var10 Int) (var11 Int) (var12 Int) (var13 Int) (var14 Int) (var15 Int) (var16 Int) (var17 Int) (var18 Int) (var19 Int) (var20 Int) (var21 Int) (var22 Int) (var23 Int) (var24 Int)) (or (not (and (inv_main7 var10 var9 var8 var7 var6 var5 var4 var3 var2 var1 var0) (and (and (and (and (and (and (<= 0 (+ (+ 2 (* (- 1) var11)) (- 1))) (<= 0 (+ (+ 2 (* 1 var11)) (- 1)))) (or (not (<= 0 (+ var11 (- 1)))) (<= 0 (+ var5 (- 1))))) (or (not (<= 0 (+ (* (- 1) var11) (- 1)))) (<= 0 (+ (* (- 1) var5) (- 1))))) (= var5 (+ (* 2 var12) var11))) (= var11 0)) (and (not (or (not (and (and (and (and (<= 0 (+ (+ 3 (* (- 1) var13)) (- 1))) (<= 0 (+ (+ 3 (* 1 var13)) (- 1)))) (or (not (<= 0 (+ var13 (- 1)))) (<= 0 (+ var5 (- 1))))) (or (not (<= 0 (+ (* (- 1) var13) (- 1)))) (<= 0 (+ (* (- 1) var5) (- 1))))) (= var5 (+ (* 3 var14) var13)))) (= var13 0))) (and (not (or (not (and (and (and (and (<= 0 (+ (+ 4 (* (- 1) var15)) (- 1))) (<= 0 (+ (+ 4 (* 1 var15)) (- 1)))) (or (not (<= 0 (+ var15 (- 1)))) (<= 0 (+ var5 (- 1))))) (or (not (<= 0 (+ (* (- 1) var15) (- 1)))) (<= 0 (+ (* (- 1) var5) (- 1))))) (= var5 (+ (* 4 var16) var15)))) (= var15 0))) (and (not (or (not (and (and (and (and (<= 0 (+ (+ 5 (* (- 1) var17)) (- 1))) (<= 0 (+ (+ 5 (* 1 var17)) (- 1)))) (or (not (<= 0 (+ var17 (- 1)))) (<= 0 (+ var5 (- 1))))) (or (not (<= 0 (+ (* (- 1) var17) (- 1)))) (<= 0 (+ (* (- 1) var5) (- 1))))) (= var5 (+ (* 5 var18) var17)))) (= var17 0))) (and (not (or (not (and (and (and (and (<= 0 (+ (+ 6 (* (- 1) var19)) (- 1))) (<= 0 (+ (+ 6 (* 1 var19)) (- 1)))) (or (not (<= 0 (+ var19 (- 1)))) (<= 0 (+ var5 (- 1))))) (or (not (<= 0 (+ (* (- 1) var19) (- 1)))) (<= 0 (+ (* (- 1) var5) (- 1))))) (= var5 (+ (* 6 var20) var19)))) (= var19 0))) (and (not (or (not (and (and (and (and (<= 0 (+ (+ 7 (* (- 1) var21)) (- 1))) (<= 0 (+ (+ 7 (* 1 var21)) (- 1)))) (or (not (<= 0 (+ var21 (- 1)))) (<= 0 (+ var5 (- 1))))) (or (not (<= 0 (+ (* (- 1) var21) (- 1)))) (<= 0 (+ (* (- 1) var5) (- 1))))) (= var5 (+ (* 7 var22) var21)))) (= var21 0))) (and (not (or (not (and (and (and (and (<= 0 (+ (+ 8 (* (- 1) var23)) (- 1))) (<= 0 (+ (+ 8 (* 1 var23)) (- 1)))) (or (not (<= 0 (+ var23 (- 1)))) (<= 0 (+ var5 (- 1))))) (or (not (<= 0 (+ (* (- 1) var23) (- 1)))) (<= 0 (+ (* (- 1) var5) (- 1))))) (= var5 (+ (* 8 var24) var23)))) (= var23 0))) (<= 0 (+ (+ var9 (* (- 1) var5)) (- 1)))))))))))) (inv_main27 var10 var9 var8 var7 (+ var6 1) (+ var5 1) var4 var3 var2 var1 var0))))
(assert (forall ((var0 Int) (var1 Int) (var2 Int) (var3 Int) (var4 Int) (var5 Int) (var6 Int) (var7 Int) (var8 Int) (var9 Int) (var10 Int) (var11 Int) (var12 Int) (var13 Int) (var14 Int) (var15 Int) (var16 Int) (var17 Int) (var18 Int) (var19 Int) (var20 Int) (var21 Int) (var22 Int) (var23 Int) (var24 Int)) (or (not (and (inv_main7 var10 var9 var8 var7 var6 var5 var4 var3 var2 var1 var0) (and (not (or (not (and (and (and (and (<= 0 (+ (+ 2 (* (- 1) var11)) (- 1))) (<= 0 (+ (+ 2 (* 1 var11)) (- 1)))) (or (not (<= 0 (+ var11 (- 1)))) (<= 0 (+ var5 (- 1))))) (or (not (<= 0 (+ (* (- 1) var11) (- 1)))) (<= 0 (+ (* (- 1) var5) (- 1))))) (= var5 (+ (* 2 var12) var11)))) (= var11 0))) (and (not (or (not (and (and (and (and (<= 0 (+ (+ 3 (* (- 1) var13)) (- 1))) (<= 0 (+ (+ 3 (* 1 var13)) (- 1)))) (or (not (<= 0 (+ var13 (- 1)))) (<= 0 (+ var5 (- 1))))) (or (not (<= 0 (+ (* (- 1) var13) (- 1)))) (<= 0 (+ (* (- 1) var5) (- 1))))) (= var5 (+ (* 3 var14) var13)))) (= var13 0))) (and (not (or (not (and (and (and (and (<= 0 (+ (+ 4 (* (- 1) var15)) (- 1))) (<= 0 (+ (+ 4 (* 1 var15)) (- 1)))) (or (not (<= 0 (+ var15 (- 1)))) (<= 0 (+ var5 (- 1))))) (or (not (<= 0 (+ (* (- 1) var15) (- 1)))) (<= 0 (+ (* (- 1) var5) (- 1))))) (= var5 (+ (* 4 var16) var15)))) (= var15 0))) (and (not (or (not (and (and (and (and (<= 0 (+ (+ 5 (* (- 1) var17)) (- 1))) (<= 0 (+ (+ 5 (* 1 var17)) (- 1)))) (or (not (<= 0 (+ var17 (- 1)))) (<= 0 (+ var5 (- 1))))) (or (not (<= 0 (+ (* (- 1) var17) (- 1)))) (<= 0 (+ (* (- 1) var5) (- 1))))) (= var5 (+ (* 5 var18) var17)))) (= var17 0))) (and (not (or (not (and (and (and (and (<= 0 (+ (+ 6 (* (- 1) var19)) (- 1))) (<= 0 (+ (+ 6 (* 1 var19)) (- 1)))) (or (not (<= 0 (+ var19 (- 1)))) (<= 0 (+ var5 (- 1))))) (or (not (<= 0 (+ (* (- 1) var19) (- 1)))) (<= 0 (+ (* (- 1) var5) (- 1))))) (= var5 (+ (* 6 var20) var19)))) (= var19 0))) (and (not (or (not (and (and (and (and (<= 0 (+ (+ 7 (* (- 1) var21)) (- 1))) (<= 0 (+ (+ 7 (* 1 var21)) (- 1)))) (or (not (<= 0 (+ var21 (- 1)))) (<= 0 (+ var5 (- 1))))) (or (not (<= 0 (+ (* (- 1) var21) (- 1)))) (<= 0 (+ (* (- 1) var5) (- 1))))) (= var5 (+ (* 7 var22) var21)))) (= var21 0))) (and (not (or (not (and (and (and (and (<= 0 (+ (+ 8 (* (- 1) var23)) (- 1))) (<= 0 (+ (+ 8 (* 1 var23)) (- 1)))) (or (not (<= 0 (+ var23 (- 1)))) (<= 0 (+ var5 (- 1))))) (or (not (<= 0 (+ (* (- 1) var23) (- 1)))) (<= 0 (+ (* (- 1) var5) (- 1))))) (= var5 (+ (* 8 var24) var23)))) (= var23 0))) (<= 0 (+ (+ var9 (* (- 1) var5)) (- 1)))))))))))) (inv_main27 var10 var9 var8 (+ var7 1) var6 (+ var5 1) var4 var3 var2 var1 var0))))
(assert (forall ((var0 Int) (var1 Int) (var2 Int) (var3 Int) (var4 Int) (var5 Int) (var6 Int) (var7 Int) (var8 Int) (var9 Int) (var10 Int)) (or (not (inv_main27 var10 var9 var8 var7 var6 var5 var4 var3 var2 var1 var0)) (inv_main7 var10 var9 var8 var7 var6 var5 var4 var3 var2 var1 var0))))
(assert (forall ((var0 Int) (var1 Int) (var2 Int) (var3 Int) (var4 Int) (var5 Int) (var6 Int) (var7 Int) (var8 Int) (var9 Int) (var10 Int) (var11 Int)) (or (not (and (inv_main4 var11 var10 var9 var8 var7 var6 var5 var4 var3 var2 var1) (<= 0 (+ var11 (* (- 1) var0))))) (inv_main7 var11 var0 var9 var8 var7 var6 var5 var4 var3 var2 var1))))
(assert (forall ((var0 Int) (var1 Int) (var2 Int) (var3 Int) (var4 Int) (var5 Int) (var6 Int) (var7 Int) (var8 Int) (var9 Int) (var10 Int)) (not (and (inv_main27 var10 var9 var8 var7 var6 var5 var4 var3 var2 var1 var0) (not (= (+ (+ (+ (+ (+ (+ (+ var8 var6) var7) var4) var3) var2) var1) var0) var5))))))
(check-sat)
